NAME: tsp25_9
COMMENT: 25-tsp problem (Padberg/Rinaldi)
TYPE: TSP
DIMENSION: 25
EDGE_WEIGHT_TYPE : EUC_2D
NODE_COORD_SECTION
1.00 38.46 16.84
2.00 14.74 15.81
3.00 26.96 11.03
4.00 26.51 27.67
5.00 14.13 8.64
6.00 1.39 38.51
7.00 29.82 10.69
8.00 30.50 36.79
9.00 37.95 0.78
10.00 38.14 6.73
11.00 35.96 28.60
12.00 38.25 22.19
13.00 36.05 14.31
14.00 14.30 33.96
15.00 18.89 22.49
16.00 7.56 11.14
17.00 5.69 38.00
18.00 26.91 18.73
19.00 17.08 6.57
20.00 39.03 31.19
21.00 22.74 33.87
22.00 24.61 24.00
23.00 31.39 16.03
24.00 38.39 39.77
25.00 11.80 11.32
